
  22    4
  10   10   10   10

   0   0   0   0   0   3 2 3 6 
   3  10  10  10  10   2 5 4 
   4  10  10  10  10   2 5 4 
   7  10  10  10  10   4 11 10 8 7 
   3  10  10  10  10   2 10 7 
  10  10  10  10  10   2 15 11 
   7  10  10  10  10   1 9 
   5  10  10  10  10   1 9 
   1  10  10  10  10   4 21 16 15 12 
  10  10  10  10  10   3 15 14 13 
   1  10  10  10  10   3 21 16 12 
   5  10  10  10  10   2 19 14 
   7  10  10  10  10   3 21 19 16 
  10  10  10  10  10   3 20 18 17 
   3  10  10  10  10   2 18 17 
   7  10  10  10  10   1 17 
   9  10  10  10  10   1 22
   3  10  10  10  10   1 22
   8  10  10  10  10   1 22
   7  10  10  10  10   1 22
   4  10  10  10  10   1 22
   0   0   0   0   0   0 
